[VALIDATOR STDOUT]
Checking plan: /home/jfan5/Safety-gen/runs/benchmark/optic/grippers_20260129_162723/grippers/optic_results/grippers-n1-r11-o9-s9001.plan
Plan executed successfully - checking goal
Plan valid
Final value: 32 

Successful plans:
Value: 32
 /home/jfan5/Safety-gen/runs/benchmark/optic/grippers_20260129_162723/grippers/optic_results/grippers-n1-r11-o9-s9001.plan 32
